c Generated map
c Size: 12 * 12, weights in range: 1 to 10, walls: True, with ratio 0.1
c dim 2 of 5
c
p sp 144 216
c graph contains 144 nodes and 216 arcs
c
a 1 13 2
a 13 1 2
a 1 2 1
a 2 1 1
a 2 3 9
a 3 2 9
a 3 15 8
a 15 3 8
a 3 4 6
a 4 3 6
a 4 16 3
a 16 4 3
a 4 5 10
a 5 4 10
a 5 17 3
a 17 5 3
a 5 6 8
a 6 5 8
a 6 18 6
a 18 6 6
a 6 7 9
a 7 6 9
a 7 19 8
a 19 7 8
a 7 8 10
a 8 7 10
a 8 20 6
a 20 8 6
a 8 9 7
a 9 8 7
a 9 21 7
a 21 9 7
a 9 10 5
a 10 9 5
a 10 22 7
a 22 10 7
a 10 11 3
a 11 10 3
a 11 23 1
a 23 11 1
a 11 12 1
a 12 11 1
a 12 24 2
a 24 12 2
a 13 25 8
a 25 13 8
a 15 27 2
a 27 15 2
a 15 16 2
a 16 15 2
a 16 28 4
a 28 16 4
a 16 17 10
a 17 16 10
a 17 29 4
a 29 17 4
a 17 18 10
a 18 17 10
a 18 30 8
a 30 18 8
a 18 19 10
a 19 18 10
a 19 31 3
a 31 19 3
a 19 20 5
a 20 19 5
a 20 32 9
a 32 20 9
a 20 21 10
a 21 20 10
a 21 33 10
a 33 21 10
a 21 22 8
a 22 21 8
a 22 34 1
a 34 22 1
a 22 23 7
a 23 22 7
a 23 35 8
a 35 23 8
a 23 24 10
a 24 23 10
a 24 36 2
a 36 24 2
a 25 37 9
a 37 25 9
a 25 26 7
a 26 25 7
a 26 38 8
a 38 26 8
a 26 27 6
a 27 26 6
a 27 39 2
a 39 27 2
a 27 28 6
a 28 27 6
a 28 29 4
a 29 28 4
a 29 41 7
a 41 29 7
a 29 30 3
a 30 29 3
a 30 42 5
a 42 30 5
a 30 31 7
a 31 30 7
a 31 43 4
a 43 31 4
a 31 32 1
a 32 31 1
a 32 44 7
a 44 32 7
a 32 33 2
a 33 32 2
a 33 34 3
a 34 33 3
a 34 46 7
a 46 34 7
a 34 35 2
a 35 34 2
a 35 47 2
a 47 35 2
a 35 36 1
a 36 35 1
a 36 48 2
a 48 36 2
a 37 49 10
a 49 37 10
a 37 38 6
a 38 37 6
a 38 50 2
a 50 38 2
a 38 39 4
a 39 38 4
a 39 51 9
a 51 39 9
a 41 53 1
a 53 41 1
a 41 42 8
a 42 41 8
a 42 54 2
a 54 42 2
a 42 43 6
a 43 42 6
a 43 55 6
a 55 43 6
a 43 44 4
a 44 43 4
a 44 56 1
a 56 44 1
a 46 58 2
a 58 46 2
a 46 47 9
a 47 46 9
a 47 59 6
a 59 47 6
a 47 48 8
a 48 47 8
a 49 61 4
a 61 49 4
a 49 50 6
a 50 49 6
a 50 62 2
a 62 50 2
a 50 51 2
a 51 50 2
a 51 63 6
a 63 51 6
a 51 52 4
a 52 51 4
a 52 64 4
a 64 52 4
a 52 53 1
a 53 52 1
a 53 65 7
a 65 53 7
a 53 54 5
a 54 53 5
a 54 66 10
a 66 54 10
a 54 55 6
a 55 54 6
a 55 67 5
a 67 55 5
a 55 56 3
a 56 55 3
a 56 68 2
a 68 56 2
a 56 57 8
a 57 56 8
a 57 69 4
a 69 57 4
a 57 58 3
a 58 57 3
a 58 70 10
a 70 58 10
a 58 59 10
a 59 58 10
a 59 71 9
a 71 59 9
a 61 73 9
a 73 61 9
a 61 62 2
a 62 61 2
a 62 74 5
a 74 62 5
a 62 63 6
a 63 62 6
a 63 75 3
a 75 63 3
a 63 64 8
a 64 63 8
a 64 76 9
a 76 64 9
a 64 65 5
a 65 64 5
a 65 77 10
a 77 65 10
a 65 66 10
a 66 65 10
a 66 78 2
a 78 66 2
a 66 67 7
a 67 66 7
a 67 79 10
a 79 67 10
a 67 68 8
a 68 67 8
a 68 80 1
a 80 68 1
a 68 69 2
a 69 68 2
a 69 81 3
a 81 69 3
a 69 70 1
a 70 69 1
a 70 82 9
a 82 70 9
a 70 71 1
a 71 70 1
a 71 83 2
a 83 71 2
a 71 72 8
a 72 71 8
a 73 85 9
a 85 73 9
a 73 74 3
a 74 73 3
a 74 75 9
a 75 74 9
a 75 87 3
a 87 75 3
a 75 76 3
a 76 75 3
a 76 88 4
a 88 76 4
a 76 77 6
a 77 76 6
a 77 89 8
a 89 77 8
a 77 78 8
a 78 77 8
a 78 90 5
a 90 78 5
a 78 79 1
a 79 78 1
a 79 80 8
a 80 79 8
a 80 92 1
a 92 80 1
a 80 81 5
a 81 80 5
a 81 82 1
a 82 81 1
a 82 94 10
a 94 82 10
a 82 83 2
a 83 82 2
a 83 95 7
a 95 83 7
a 85 97 8
a 97 85 8
a 87 99 3
a 99 87 3
a 87 88 1
a 88 87 1
a 88 100 4
a 100 88 4
a 88 89 7
a 89 88 7
a 89 101 10
a 101 89 10
a 89 90 9
a 90 89 9
a 90 102 9
a 102 90 9
a 92 104 4
a 104 92 4
a 94 106 4
a 106 94 4
a 94 95 7
a 95 94 7
a 95 107 5
a 107 95 5
a 97 109 10
a 109 97 10
a 97 98 10
a 98 97 10
a 98 110 7
a 110 98 7
a 98 99 10
a 99 98 10
a 99 111 4
a 111 99 4
a 99 100 9
a 100 99 9
a 100 101 1
a 101 100 1
a 101 102 1
a 102 101 1
a 102 114 9
a 114 102 9
a 102 103 10
a 103 102 10
a 103 104 2
a 104 103 2
a 104 116 1
a 116 104 1
a 104 105 9
a 105 104 9
a 105 117 5
a 117 105 5
a 105 106 8
a 106 105 8
a 106 118 6
a 118 106 6
a 106 107 6
a 107 106 6
a 107 119 7
a 119 107 7
a 109 110 9
a 110 109 9
a 110 122 3
a 122 110 3
a 110 111 4
a 111 110 4
a 111 123 5
a 123 111 5
a 114 126 2
a 126 114 2
a 116 128 7
a 128 116 7
a 116 117 3
a 117 116 3
a 117 129 3
a 129 117 3
a 117 118 10
a 118 117 10
a 118 130 10
a 130 118 10
a 118 119 6
a 119 118 6
a 119 131 3
a 131 119 3
a 119 120 10
a 120 119 10
a 120 132 1
a 132 120 1
a 122 134 10
a 134 122 10
a 122 123 5
a 123 122 5
a 123 135 10
a 135 123 10
a 123 124 6
a 124 123 6
a 124 136 8
a 136 124 8
a 124 125 10
a 125 124 10
a 125 137 6
a 137 125 6
a 125 126 4
a 126 125 4
a 126 138 5
a 138 126 5
a 126 127 4
a 127 126 4
a 127 139 9
a 139 127 9
a 127 128 5
a 128 127 5
a 128 140 10
a 140 128 10
a 128 129 9
a 129 128 9
a 129 141 9
a 141 129 9
a 129 130 7
a 130 129 7
a 130 142 5
a 142 130 5
a 130 131 6
a 131 130 6
a 131 143 6
a 143 131 6
a 131 132 4
a 132 131 4
a 132 144 2
a 144 132 2
a 133 134 2
a 134 133 2
a 134 135 4
a 135 134 4
a 135 136 7
a 136 135 7
a 136 137 5
a 137 136 5
a 137 138 10
a 138 137 10
a 138 139 6
a 139 138 6
a 139 140 5
a 140 139 5
a 140 141 6
a 141 140 6
a 141 142 8
a 142 141 8
a 142 143 8
a 143 142 8
a 143 144 8
a 144 143 8
